NAME          ClpDefau
ROWS
 N  OBJROW
 L  R_88_0
 L  R_88_1
 L  R_88_2
 L  R_88_3
 L  R_88_4
 L  R_88_5
 L  R_88_6
 L  R_88_7
 L  R_88_8
 L  R_88_9
 L  R_88_10
 L  R_88_11
 L  R_88_12
 L  R_88_13
 L  R_88_14
 L  R_88_15
COLUMNS
    x_0       OBJROW     -8.           R_88_15   23.         
    x_1       OBJROW     -12.          R_88_1    42.         
    x_1       R_88_2    66.            R_88_6    58.         
    x_1       R_88_15   97.         
    x_2       OBJROW     -11.       
    x_3       OBJROW     -47.       
    x_4       OBJROW     -22.          R_88_5    25.         
    x_4       R_88_7    74.            R_88_12   67.         
    x_4       R_88_13   35.         
    x_5       OBJROW     -95.          R_88_3    47.         
    x_5       R_88_6    15.            R_88_8    94.         
    x_5       R_88_11   21.            R_88_14   76.         
    x_5       R_88_15   32.         
    x_6       OBJROW     -86.          R_88_0    5.          
    x_6       R_88_1    79.            R_88_9    34.         
    x_7       OBJROW     -40.          R_88_1    58.         
    x_8       OBJROW     -33.          R_88_1    22.         
    x_8       R_88_2    82.            R_88_6    32.         
    x_9       OBJROW     -78.          R_88_1    5.          
    x_9       R_88_3    66.            R_88_6    24.         
    x_9       R_88_8    4.          
    x_10      OBJROW     -28.          R_88_4    54.         
    x_10      R_88_10   16.            R_88_15   88.         
    x_11      OBJROW     -78.          R_88_1    26.         
    x_11      R_88_4    58.            R_88_5    82.         
    x_11      R_88_9    37.            R_88_10   40.         
    x_11      R_88_12   97.            R_88_14   48.         
    x_12      OBJROW     -5.           R_88_3    16.         
    x_12      R_88_4    79.            R_88_9    85.         
    x_12      R_88_11   91.         
    x_13      OBJROW     -75.       
    x_14      OBJROW     -88.          R_88_0    46.         
    x_14      R_88_1    70.            R_88_2    54.         
    x_14      R_88_8    38.            R_88_13   37.         
    x_14      R_88_14   70.         
    x_15      OBJROW     -21.          R_88_5    21.         
    x_15      R_88_12   57.         
RHS
    RHS       R_88_0    86.            R_88_1    140.        
    RHS       R_88_2    170.           R_88_3    53.         
    RHS       R_88_4    163.           R_88_5    110.        
    RHS       R_88_6    143.           R_88_7    104.        
    RHS       R_88_8    145.           R_88_9    205.        
    RHS       R_88_10   160.           R_88_11   132.        
    RHS       R_88_12   180.           R_88_13   124.        
    RHS       R_88_14   208.           R_88_15   60.         
BOUNDS
 UI BOUND     x_0       100.        
 UI BOUND     x_1       100.        
 UI BOUND     x_2       100.        
 UI BOUND     x_3       100.        
 UI BOUND     x_4       100.        
 UI BOUND     x_5       100.        
 UI BOUND     x_6       100.        
 UI BOUND     x_7       100.        
 UI BOUND     x_8       100.        
 UI BOUND     x_9       100.        
 UI BOUND     x_10      100.        
 UI BOUND     x_11      100.        
 UI BOUND     x_12      100.        
 UI BOUND     x_13      100.        
 UI BOUND     x_14      100.        
 UI BOUND     x_15      100.        
ENDATA
